c Sudoku solution
p cnf 729 0
227 0
241 0
252 0
283 0
319 0
378 0
387 0
396 0
525 0
538 0
551 0
563 0
592 0
633 0
649 0
677 0
734 0
782 0
172 0
812 0
853 0
888 0
916 0
959 0
967 0
942 0
928 0
891 0
797 0
837 0
829 0
779 0
876 0
761 0
723 0
931 0
715 0
113 0
218 0
343 0
439 0
321 0
332 0
124 0
471 0
493 0
698 0
611 0
973 0
275 0
294 0
236 0
135 0
269 0
574 0
589 0
517 0
414 0
546 0
844 0
865 0
445 0
654 0
662 0
468 0
457 0
422 0
626 0
486 0
685 0
748 0
756 0
147 0
355 0
364 0
158 0
166 0
181 0
199 0
984 0
995 0
